
Gurobi 10.0.2 (linux64) logging started Thu Sep  7 10:02:52 2023

Set parameter LogFile to value "../surrogate_problem/log/surrogate2_30.log"
Set parameter Threads to value 30
Gurobi Optimizer version 10.0.2 build v10.0.2rc0 (linux64)

CPU model: Intel(R) Xeon(R) Platinum 8280 CPU @ 2.70GHz, instruction set [SSE2|AVX|AVX2|AVX512]
Thread count: 112 physical cores, 112 logical processors, using up to 30 threads

Optimize a model with 492 rows, 636 columns and 26076 nonzeros
Model fingerprint: 0xdb3612a6
Variable types: 321 continuous, 315 integer (315 binary)
Coefficient statistics:
  Matrix range     [1e-05, 1e+05]
  Objective range  [2e-01, 2e+01]
  Bounds range     [1e+00, 1e+00]
  RHS range        [2e-02, 1e+05]
Found heuristic solution: objective 45824.045631
Presolve removed 324 rows and 324 columns
Presolve time: 0.02s
Presolved: 168 rows, 312 columns, 8223 nonzeros
Variable types: 105 continuous, 207 integer (207 binary)

Root relaxation: objective 4.070454e+04, 63 iterations, 0.00 seconds (0.00 work units)

    Nodes    |    Current Node    |     Objective Bounds      |     Work
 Expl Unexpl |  Obj  Depth IntInf | Incumbent    BestBd   Gap | It/Node Time

*    0     0               0    40704.537906 40704.5379  0.00%     -    0s

Explored 1 nodes (63 simplex iterations) in 0.04 seconds (0.02 work units)
Thread count was 30 (of 112 available processors)

Solution count 2: 40704.5 45824 

Optimal solution found (tolerance 1.00e-04)
Best objective 4.070453790559e+04, best bound 4.070453790559e+04, gap 0.0000%

Gurobi 10.0.2 (linux64) logging started Fri Sep  8 15:19:42 2023

Set parameter LogFile to value "../surrogate_problem/log/surrogate2_30.log"
Gurobi Optimizer version 10.0.2 build v10.0.2rc0 (linux64)

CPU model: Intel(R) Xeon(R) Platinum 8280 CPU @ 2.70GHz, instruction set [SSE2|AVX|AVX2|AVX512]
Thread count: 112 physical cores, 112 logical processors, using up to 30 threads

Optimize a model with 492 rows, 636 columns and 26076 nonzeros
Model fingerprint: 0xdb3612a6
Variable types: 321 continuous, 315 integer (315 binary)
Coefficient statistics:
  Matrix range     [1e-05, 1e+05]
  Objective range  [2e-01, 2e+01]
  Bounds range     [1e+00, 1e+00]
  RHS range        [2e-02, 1e+05]
Found heuristic solution: objective 45824.045631
Presolve removed 324 rows and 324 columns
Presolve time: 0.02s
Presolved: 168 rows, 312 columns, 8223 nonzeros
Variable types: 105 continuous, 207 integer (207 binary)

Root relaxation: objective 4.070454e+04, 63 iterations, 0.00 seconds (0.00 work units)

    Nodes    |    Current Node    |     Objective Bounds      |     Work
 Expl Unexpl |  Obj  Depth IntInf | Incumbent    BestBd   Gap | It/Node Time

*    0     0               0    40704.537906 40704.5379  0.00%     -    0s

Explored 1 nodes (63 simplex iterations) in 0.06 seconds (0.02 work units)
Thread count was 30 (of 112 available processors)

Solution count 2: 40704.5 45824 

Optimal solution found (tolerance 1.00e-04)
Best objective 4.070453790559e+04, best bound 4.070453790559e+04, gap 0.0000%
